Route #1: 34 26 4 6 2 12 
Route #2: 40 7 18 13 35 39 
Route #3: 28 3 27 41 43 44 
Route #4: 24 11 29 33 14 21 
Route #5: 5 31 19 36 30 37 
Route #6: 9 25 15 23 17 8 32 
Route #7: 16 42 1 22 10 38 20 
cost 1284.49
execution_time 16.202
